% File represents an instance of a Composite Structure problem to be solved by a CP framework
% Created on 2025-03-25 14:05:13.601
T = 54;
n = 4;
m = 4;
edges = [(2, 1),
(4, 3),
(1, 3),
(4, 2)];
counts = [|9, 22, 5, 10,
|9, 24, 5, 10,
|9, 22, 5, 9,
|9, 24, 11, 10|];
